c ====================[ Coprocessor 7.1.0                    v7.1.0-dirty ]================================
c | Norbert Manthey. The use of the tool is limited to research only!                                     |
c | Contributors:                                                                                         |
c |     Kilian Gebhard                                                                                    |
c |     Lucas Kahlert, Franziska Krüger, Aaron Stephan                                                    |
c ============================[ Problem Statistics ]=======================================================
c |                                                                                                       |
c |  Number of variables:           380                                                                  |
c |  Number of clauses:            2090                                                                   |
c |  Parse time:                   0.00 s                                                                 |
c [STAT] CP3 0.014243 s-ppTime, 0 s-ipTime, 0.0142421 s-ppwTime, 0 s-ipwTime, 9 MB, ok 0.000735 s-ohTime, 
c [STAT] CP3(2) 3100 cls, 0 learnts, -1010 rem-cls, 0 rem-learnts, 
c [STAT] UP 8e-06 s, 0 units, 0 cls, 0 lits
c [STAT] SuSi(1) 0.000582 s, 0 cls,  with 0 lits, 0 strengthed 
c [STAT] SuSi(2) 15960 subs-steps, 27519 strenght-steps, 0 increases, 0.001289s strengthening 
c [STAT] EE 0.000752 s, 0 steps 0 ee-lits 0 removedCls, 0 removedSubCls,
c [STAT] EE-gate 5.1e-05 s, 0 steps, 0.000591 extractGateTime, 
c [STAT] BVE(1) 0.000842 s, 0.000114 s spent on subsimp, 51 vars tested, 51 anticipations, 649 vars skipped, 3403 checks, 
c [STAT] BVE(2) 443 rem cls, with 1363 lits, 0 learnts rem, with 0 lits, 1453 new cls, with 5992 lits, 0 new learnts, with 0 lits, 
c [STAT] BVE(3) 30 vars eliminated, 0 units enqueued, 0 BC removed, with 0 lits, 0 blocked learnts removed, with 0 lits, 
c [STAT] BVE(4) 0 gateDefs, 0 usedGates, 0 gateSeconds, 
c [STAT] BVE(5) 30 incElims, 0 keepElims, 0 decElims, 1010 totalAdds,
c [STAT] UNHIDE 0.001303 s, 0 cls, 0 totalLits, 0 lits 
c [STAT] UNHIDE(2) 0 prSecs, 0 prSteps, 0 L1units, 0 L2units, 0 L3units, 0 L4units, 0 L5units, 
c [STAT] UNHIDE(3) 0 EE-checks, 0 EE-cands, 0 EEs 
c [STAT] XOR 0.001456s, 0.001383 parse-s, 6.4e-05 reason-s, 
c [STAT] XOR(2) 0 xors, 0 subXors, 0 resXors, 0 clauses, 0 resClauses, 0 resTauts, 0 resStrength, 5185 findChecks, 
c [STAT] XOR(3) 0 steps, 760 empties, 0 listUnits, 0 useLists, 0 xorUnits, 0 eqs, 
c [STAT] XOR(4) 3096 participating, 0.873836 ratio, 0 simDecisions, 0 xorProps, 0 clsProps, 
c [STAT] BCE 0.00188 seconds, 22124 steps, 1398 testLits, 0 remBCE, 0 BCMs, 0 BCMcands, 0 BCMlits, 
c [STAT] CLE 1 remCLE, 0 cleUnits, 
c [STAT] BCE-CLA 0 seconds, 0 steps, 0 testLits, 0 extClss, 0 extLits, 0 possibles, 
c [STAT] FM 0.004988 s, 0.000217 amo-s, 0.00627 fm-s, 0.001094 amt-s, 0 amos, 0 amts, 0 sameUnits, 0 deducedUnits, 0 propUnits, 0 cls, 0 steps, 32256 searchSteps, 0 addDups, 
c [STAT] FM(2) 0 irregulars, 0 pureAmoLits, 0 diff, 0 discards, 0 addedCs, 0 removedCs, 0 newAmos, 0 discardedNewAmos, 
c [STAT] FM(3) 0 newAmoBinCls, 0 newCls, 0 newAlos, 0 newAlks, 0 duplicates, 0 garbageCollecst, 
c [STAT] FM(4) 4e-06 2PrdTime, 0 2PrAmos, 0 2PrLits, 2e-06 dedAloTime, 0 dedAlos, 
c [STAT] FM(5) time: 0.003489 s,steps: 30733 cards: 0 failed: 5189 extLits: 0 redDegree: 0 probes: 5810 conflictProbes: 1 savedPreCls: 0 savedPostCls: 0 units: 13693
c [STAT] DENSE 30 gaps
c |  Simplification time:          0.01 s                                                                 |
c |                                                                                                       |
c ==============================[ Writing DIMACS ]=========================================================
c =============================[ Writing Undo Info ]=======================================================
c write undo for 267 clauses and 0 units
c preprocessed 0 seconds
c starting sparrow solver
c Instance name       :  /home/lorenz/SAT2018/s2r_bin/tmp/cp_tmpCNF_47540
c Number of variables :  350
c Number of literals  :  700
c Number of Clauses   :  3100
c MaxNumOccurences    :  64
c MaxClauseSize       :  5
c MinClauseSize       :  2
c Ratio               :  8.8571
c Parameter setting   :  5 SAT

c Sparrow 2014 Parameteres: 
c c1                  : 2.8500
c c2                  : 4
c c3                  : 75000
c smoothing prob.     : 1.000
c seed                : 0
c XOR implementation  : yes
c using:              : random clause selection
c maxTries            : 9223372036854775807
c maxFlips            : 500000000
c timeout             : 900sec
c luby restarts       : yes
c luby base           : 262144
c keep assignement    : yes
c sp sequence:        : 0.000, 0.100, 0.600, 1.000, 0.900, 0.600, 0.800, 0.600, 0.000, 
c -->Starting solver  : 

c UNKNOWN best(   3) current(   8) (4.90000        sec)
c EndStatistics:
c numFlips                      : 13722880 
c numProbWalks                  : 11733525  (85.50%) 
c gradientWalks                 : 1989355   (14.50%) 
c numSmooth                     : 0         (0.00%) 
c numWeight                     : 0         (0.00%) 
c Try CPU Time                  : 4.900   
c totalTries                    : 508      
c totalFlips                    : 500000000
c flips/sec                     : 2315672 
c Total CPU Time                : 215.920 sec
c solved 216 seconds
c parse model from /home/lorenz/SAT2018/s2r_bin/tmp/cp_model_47540
c WARNING: could not find any solution information!
c opened var map /home/lorenz/SAT2018/s2r_bin/tmp/cp_undo_47540.map for reading ... 
c use Riss 7.1
c [STAT] CP3 0.014465 s-ppTime, 0 s-ipTime, 0.0188746 s-ppwTime, 0 s-ipwTime, 9 MB, ok 0.000768 s-ohTime, 
c [STAT] CP3(2) 2988 cls, 0 learnts, -898 rem-cls, 0 rem-learnts, 
c [STAT] UP 3e-06 s, 0 units, 0 cls, 0 lits
c [STAT] SuSi(1) 0.000636 s, 0 cls,  with 0 lits, 0 strengthed 
c [STAT] SuSi(2) 14313 subs-steps, 31464 strenght-steps, 0 increases, 0.001539s strengthening 
c [STAT] EE 0.001447 s, 0 steps 0 ee-lits 0 removedCls, 0 removedSubCls,
c [STAT] EE-gate 0.000105 s, 0 steps, 0.001128 extractGateTime, 
c [STAT] BVE(1) 0.003228 s, 0.002286 s spent on subsimp, 51 vars tested, 50 anticipations, 652 vars skipped, 2948 checks, 
c [STAT] BVE(2) 565 rem cls, with 1713 lits, 0 learnts rem, with 0 lits, 1463 new cls, with 5925 lits, 0 new learnts, with 0 lits, 
c [STAT] BVE(3) 51 vars eliminated, 0 units enqueued, 0 BC removed, with 0 lits, 0 blocked learnts removed, with 0 lits, 
c [STAT] BVE(4) 0 gateDefs, 0 usedGates, 7.7e-05 gateSeconds, 
c [STAT] BVE(5) 47 incElims, 0 keepElims, 4 decElims, 898 totalAdds,
c [STAT] UNHIDE 0.002803 s, 0 cls, 0 totalLits, 0 lits 
c [STAT] UNHIDE(2) 0 prSecs, 0 prSteps, 0 L1units, 0 L2units, 0 L3units, 0 L4units, 0 L5units, 
c [STAT] UNHIDE(3) 0 EE-checks, 0 EE-cands, 0 EEs 
c [STAT] XOR 0.000924s, 0.000869 parse-s, 4.7e-05 reason-s, 
c [STAT] XOR(2) 0 xors, 0 subXors, 0 resXors, 0 clauses, 0 resClauses, 0 resTauts, 0 resStrength, 5073 findChecks, 
c [STAT] XOR(3) 0 steps, 760 empties, 0 listUnits, 0 useLists, 0 xorUnits, 0 eqs, 
c [STAT] XOR(4) 2984 participating, 0.839854 ratio, 0 simDecisions, 0 xorProps, 0 clsProps, 
c [STAT] BCE 0.000695 seconds, 21270 steps, 1316 testLits, 0 remBCE, 0 BCMs, 0 BCMcands, 0 BCMlits, 
c [STAT] CLE 1 remCLE, 0 cleUnits, 
c [STAT] BCE-CLA 0 seconds, 0 steps, 0 testLits, 0 extClss, 0 extLits, 0 possibles, 
c [STAT] FM 0.004231 s, 0.000146 amo-s, 0.009685 fm-s, 0.000777 amt-s, 0 amos, 0 amts, 0 sameUnits, 0 deducedUnits, 0 propUnits, 0 cls, 0 steps, 31457 searchSteps, 0 addDups, 
c [STAT] FM(2) 0 irregulars, 0 pureAmoLits, 0 diff, 0 discards, 0 addedCs, 0 removedCs, 0 newAmos, 0 discardedNewAmos, 
c [STAT] FM(3) 0 newAmoBinCls, 0 newCls, 0 newAlos, 0 newAlks, 0 duplicates, 0 garbageCollecst, 
c [STAT] FM(4) 6e-06 2PrdTime, 0 2PrAmos, 0 2PrLits, 3e-06 dedAloTime, 0 dedAlos, 
c [STAT] FM(5) time: 0.0031 s,steps: 29657 cards: 0 failed: 5077 extLits: 0 redDegree: 0 probes: 5625 conflictProbes: 0 savedPreCls: 0 savedPostCls: 0 units: 13142
c [STAT] DENSE 51 gaps
c Riss 7.1 used 6 seconds with exit code 10
c pp-time: 0 SLS-time: 216  CDCL-time: 6
c solved with: Riss 7.1
 c
c SparrowToRiss 2018
c Adrian Balint, Norbert Manthey
c
c undo: /home/lorenz/SAT2018/s2r_bin/tmp/cp_undo_47540 tmpCNF: /home/lorenz/SAT2018/s2r_bin/tmp/cp_tmpCNF_47540 model: /home/lorenz/SAT2018/s2r_bin/tmp/cp_model_47540 realModel: /home/lorenz/SAT2018/s2r_bin/tmp/model_47540
c preprocessed 0 seconds with exit code 0
c not solved by preprocessor -- do search
c post-process with coprocessor
c WARNING: for repeatability, setting FPU to use double precision
c =================[ riss (core) 7.1.0                    v7.1.0-dirty ]===================================
c | Norbert Manthey. The use of the tool is limited to research only!                                     |
c | Based on Minisat 2.2 and Glucose 2.1  -- thanks!                                                      |
c | Contributors:                                                                                         |
c |      Kilian Gebhardt                                                                                  |
c |      Lucas Kahlert, Franziska Krüger, Aaron Stephan                                                   |
c ============================[ Problem Statistics ]=======================================================
c |                                                                                                       |
c |  Number of variables:                380                                                              |
c |  Number of clauses:                 2090                                                              |
c |  Number of total literals:          6270                                                              |
c |  Parse time:                        0.00 s                                                            |
c |                                                                                                       |
c ========================================[ MAGIC CONSTANTS ]==============================================
c | Constants are supposed to work well together :-)                                                      |
c | however, if you find better choices, please let us known...                                           |
c |-------------------------------------------------------------------------------------------------------|
c |                                |                                |                                     |
c | - Restarts:                    | - Reduce Clause DB:            | - Minimize Asserting:               |
c |   * LBD Queue    :     50      |   * First     :   4000         |    * size <  30                     |
c |   * Trail  Queue :   5000      |   * Inc       :    300         |    * lbd  <   6                     |
c |   * K            :   0.80      |   * Special   :   1000         |                                     |
c |   * R            :   1.40      |   * Protected :  (lbd)< 30     |                                     |
c |                                |                                |                                     |
c =========================================================================================================
c =========================================================================================================
c | solve clauses:         2988  solve variables:          329                                            |
c =========================================================================================================
c ==================================[ Search Statistics (every  10000 conflicts) ]=========================
c |                                                                                                       |
c |          RESTARTS           |          ORIGINAL         |              LEARNT              | Progress |
c |       NB   Blocked  Avg Cfc |    Vars  Clauses Literals |   Red   Learnts    LBD2  Removed |          |
c =========================================================================================================
c |        1         0    10000 |     380     2988    10481 |     1     8040       20     1959 |  0.001 % | 
c |        1       146    20000 |     380     2988    10481 |     3     7141       28    12858 |  0.001 % | 
c |        7       288     4285 |     380     2988    10481 |     3    17141       34    12858 |  0.001 % | 
c |        7       440     5714 |     380     2988    10481 |     4    17958       45    22041 |  0.001 % | 
c |        7       579     7142 |     380     2988    10481 |     5    16225       57    33774 |  0.001 % | 
c |       10       724     6000 |     380     2988    10481 |     5    26225       64    33774 |  0.001 % | 
c |       14       868     5000 |     380     2988    10481 |     6    21907       72    48092 |  0.001 % | 
c |       14      1019     5714 |     380     2988    10481 |     6    31907       81    48092 |  0.001 % | 
c |       15      1170     6000 |     380     2988    10481 |     7    24995       90    65004 |  0.001 % | 
c |       19      1318     5263 |     380     2988    10481 |     7    34995       96    65004 |  0.001 % | 
c |       19      1464     5789 |     380     2988    10481 |     8    25497      105    84502 |  0.001 % | 
c |       21      1615     5714 |     380     2988    10481 |     8    35497      112    84502 |  0.001 % | 
c |       21      1745     6190 |     380     2988    10481 |     9    23402      122   106597 |  0.001 % | 
c =========================================================================================================
c Tinimt-Ratios: ratioCpW: 0.94 ,overhead/Total 0.22 0.21 
c Timing(cpu,wall, in s): total: 6.24 6.65 ,prop: 4.27 4.61 ,analysis: 0.60 0.65 ,ext.Res.: 0.00 0.00 ,reduce: 0.04 0.04 ,overhead 1.35 1.37
c PP-Timing(cpu,wall, in s): preprocessing( 1 ): 0.01 0.02 ,inprocessing (0 ): 0.00 0.00
c Trivial Polarity: True: 0  False: 0
c Learnt At Level 1: 0  Multiple: 0 Units: 0
c LAs: 0.000000 laSeconds 0 LA assigned: 0 tabus: 0, failedLas: 0, maxEvery 0, eeV: 0 eeL: 0 
c otfss: 0 (l1: 0 ),cls: 0 ,units: 0 ,binaries: 0, eagerCandidates: 0
c learning: 138586 cls, 15.242001 avg. size, 10.118122 avg. LBD, 38 maxSize
c res.ext.res.: 0 rer, 0 rerSizeCands, 0 sizeReject, 0 patternReject, 0 bloomReject, 0 maxSize, 0.00 avgSize, 0.00 totalLits, 0 gates
c ER rewrite: 0 cls, 0 lits
c i.cls.strengthening: 0.00 seconds, 0 calls, 0 candidates, 0 droppedBefore, 0 shrinked, 0 shrinkedLits
c bi-asserting: 0 pre-Mini, 0 post-Mini, 0.000 rel-pre, 0.000 rel-post
c search-UHLE: 0 attempts, 0 rem-lits
c revMin: 14779 tries 27 succesful 27 dropped 0 cut 27 conflicts
c decisionClauses: 0
c IntervalRestarts: 0
c partial restarts: 0 saved decisions: 0 saved propagations: 0 recursives: 7
c uhd probe: 0.000000 s, 0 L2units, 0 L3units, 0 L4units
c LCM: 0.762457 s, 2 nbLCM, 16657 LCMclsAttempts, 2045 nbLCMclsSuccess, 1606 npConflLCMlits, 4036 nbLCMlits, 0 falsified, 0 positiveDrop, 3792 litsR1, 244 litsR2
c restarts              : 29 (4778 conflicts in avg)
c blocked restarts      : 1864 (multiple: 18) 
c last block at restart : 29
c nb ReduceDB           : 9
c nb removed Clauses    : 106597
c nb learnts DL2        : 126
c nb learnts size 2     : 0
c nb learnts size 1     : 0
c conflicts             : 138586         (22194 /sec)
c decisions             : 163971         (0.00 % random) (26259 /sec)
c propagations          : 7031424        (1126050 /sec)
c conflict literals     : 2112355        (23.82 % deleted)
c nb reduced Clauses    : 0
c Memory used           : 14.00 MB
c CPU time              : 6.24433 s
s SATISFIABLE
v 1 2 -3 -4 5 6 7 -8 -9 10 11 -12 -13 -14 -15 16 17 -18 19 20 21 22 23 24 25 -26 27 -28 29 30 -31 -32 -33 -34 35 -36 -37 -38 39 -40 41 -42 43 44 45 46 -47 48 49 50 51 -52 53 54 -55 -56 57 -58 59 60 -61 62 63 64 65 -66 67 68 69 70 71 -72 -73 -74 75 76 77 -78 -79 -80 -81 -82 83 -84 85 -86 87 -88 89 90 91 92 93 94 95 -96 -97 98 99 100 101 -102 103 104 105 -106 -107 -108 109 110 -111 112 -113 114 -115 116 -117 118 119 -120 121 122 123 124 125 -126 -127 -128 129 -130 131 132 133 -134 -135 -136 137 138 139 -140 141 -142 -143 144 -145 -146 147 148 149 150 151 -152 -153 154 155 -156 -157 -158 159 -160 -161 162 163 -164 165 166 -167 168 -169 -170 171 -172 -173 174 175 -176 -177 -178 179 -180 -181 182 183 -184 -185 186 187 -188 189 -190 -191 -192 -193 194 195 -196 -197 -198 199 200 201 -202 203 204 -205 206 207 -208 209 -210 -211 212 213 -214 215 216 -217 -218 -219 220 -221 222 223 -224 -225 226 -227 -228 229 230 -231 -232 -233 -234 235 -236 237 -238 239 -240 -241 -242 243 -244 -245 -246 247 -248 249 250 251 -252 253 -254 -255 256 257 258 -259 -260 -261 -262 -263 264 -265 -266 267 -268 -269 270 -271 -272 273 -274 -275 -276 -277 -278 -279 280 -281 -282 -283 284 -285 -286 -287 -288 289 290 -291 292 293 294 295 296 -297 298 -299 -300 301 302 303 -304 305 306 -307 -308 -309 310 311 -312 -313 -314 -315 -316 -317 -318 319 -320 -321 322 -323 324 325 326 327 328 329 -330 -331 -332 333 334 -335 336 337 -338 -339 340 341 342 -343 344 -345 346 -347 348 349 -350 -351 -352 -353 -354 355 -356 357 358 -359 -360 361 -362 -363 364 365 366 367 368 369 -370 -371 372 -373 -374 -375 376 -377 -378 379 -380 0

